p cnf 175 1217
1 2 3 4 5 0
6 7 8 9 10 0
11 12 13 14 15 0
16 17 18 19 20 0
21 22 23 24 25 0
26 27 28 29 30 0
31 32 33 34 35 0
36 37 38 39 40 0
41 42 43 44 45 0
46 47 48 49 50 0
51 52 53 54 55 0
56 57 58 59 60 0
61 62 63 64 65 0
66 67 68 69 70 0
71 72 73 74 75 0
76 77 78 79 80 0
81 82 83 84 85 0
86 87 88 89 90 0
91 92 93 94 95 0
96 97 98 99 100 0
101 102 103 104 105 0
106 107 108 109 110 0
111 112 113 114 115 0
116 117 118 119 120 0
121 122 123 124 125 0
126 127 128 129 130 0
131 132 133 134 135 0
136 137 138 139 140 0
141 142 143 144 145 0
146 147 148 149 150 0
151 152 153 154 155 0
156 157 158 159 160 0
161 162 163 164 165 0
166 167 168 169 170 0
171 172 173 174 175 0
-1 -2 0
-1 -3 0
-1 -4 0
-1 -5 0
-2 -3 0
-2 -4 0
-2 -5 0
-3 -4 0
-3 -5 0
-4 -5 0
-6 -7 0
-6 -8 0
-6 -9 0
-6 -10 0
-7 -8 0
-7 -9 0
-7 -10 0
-8 -9 0
-8 -10 0
-9 -10 0
-11 -12 0
-11 -13 0
-11 -14 0
-11 -15 0
-12 -13 0
-12 -14 0
-12 -15 0
-13 -14 0
-13 -15 0
-14 -15 0
-16 -17 0
-16 -18 0
-16 -19 0
-16 -20 0
-17 -18 0
-17 -19 0
-17 -20 0
-18 -19 0
-18 -20 0
-19 -20 0
-21 -22 0
-21 -23 0
-21 -24 0
-21 -25 0
-22 -23 0
-22 -24 0
-22 -25 0
-23 -24 0
-23 -25 0
-24 -25 0
-26 -27 0
-26 -28 0
-26 -29 0
-26 -30 0
-27 -28 0
-27 -29 0
-27 -30 0
-28 -29 0
-28 -30 0
-29 -30 0
-31 -32 0
-31 -33 0
-31 -34 0
-31 -35 0
-32 -33 0
-32 -34 0
-32 -35 0
-33 -34 0
-33 -35 0
-34 -35 0
-36 -37 0
-36 -38 0
-36 -39 0
-36 -40 0
-37 -38 0
-37 -39 0
-37 -40 0
-38 -39 0
-38 -40 0
-39 -40 0
-41 -42 0
-41 -43 0
-41 -44 0
-41 -45 0
-42 -43 0
-42 -44 0
-42 -45 0
-43 -44 0
-43 -45 0
-44 -45 0
-46 -47 0
-46 -48 0
-46 -49 0
-46 -50 0
-47 -48 0
-47 -49 0
-47 -50 0
-48 -49 0
-48 -50 0
-49 -50 0
-51 -52 0
-51 -53 0
-51 -54 0
-51 -55 0
-52 -53 0
-52 -54 0
-52 -55 0
-53 -54 0
-53 -55 0
-54 -55 0
-56 -57 0
-56 -58 0
-56 -59 0
-56 -60 0
-57 -58 0
-57 -59 0
-57 -60 0
-58 -59 0
-58 -60 0
-59 -60 0
-61 -62 0
-61 -63 0
-61 -64 0
-61 -65 0
-62 -63 0
-62 -64 0
-62 -65 0
-63 -64 0
-63 -65 0
-64 -65 0
-66 -67 0
-66 -68 0
-66 -69 0
-66 -70 0
-67 -68 0
-67 -69 0
-67 -70 0
-68 -69 0
-68 -70 0
-69 -70 0
-71 -72 0
-71 -73 0
-71 -74 0
-71 -75 0
-72 -73 0
-72 -74 0
-72 -75 0
-73 -74 0
-73 -75 0
-74 -75 0
-76 -77 0
-76 -78 0
-76 -79 0
-76 -80 0
-77 -78 0
-77 -79 0
-77 -80 0
-78 -79 0
-78 -80 0
-79 -80 0
-81 -82 0
-81 -83 0
-81 -84 0
-81 -85 0
-82 -83 0
-82 -84 0
-82 -85 0
-83 -84 0
-83 -85 0
-84 -85 0
-86 -87 0
-86 -88 0
-86 -89 0
-86 -90 0
-87 -88 0
-87 -89 0
-87 -90 0
-88 -89 0
-88 -90 0
-89 -90 0
-91 -92 0
-91 -93 0
-91 -94 0
-91 -95 0
-92 -93 0
-92 -94 0
-92 -95 0
-93 -94 0
-93 -95 0
-94 -95 0
-96 -97 0
-96 -98 0
-96 -99 0
-96 -100 0
-97 -98 0
-97 -99 0
-97 -100 0
-98 -99 0
-98 -100 0
-99 -100 0
-101 -102 0
-101 -103 0
-101 -104 0
-101 -105 0
-102 -103 0
-102 -104 0
-102 -105 0
-103 -104 0
-103 -105 0
-104 -105 0
-106 -107 0
-106 -108 0
-106 -109 0
-106 -110 0
-107 -108 0
-107 -109 0
-107 -110 0
-108 -109 0
-108 -110 0
-109 -110 0
-111 -112 0
-111 -113 0
-111 -114 0
-111 -115 0
-112 -113 0
-112 -114 0
-112 -115 0
-113 -114 0
-113 -115 0
-114 -115 0
-116 -117 0
-116 -118 0
-116 -119 0
-116 -120 0
-117 -118 0
-117 -119 0
-117 -120 0
-118 -119 0
-118 -120 0
-119 -120 0
-121 -122 0
-121 -123 0
-121 -124 0
-121 -125 0
-122 -123 0
-122 -124 0
-122 -125 0
-123 -124 0
-123 -125 0
-124 -125 0
-126 -127 0
-126 -128 0
-126 -129 0
-126 -130 0
-127 -128 0
-127 -129 0
-127 -130 0
-128 -129 0
-128 -130 0
-129 -130 0
-131 -132 0
-131 -133 0
-131 -134 0
-131 -135 0
-132 -133 0
-132 -134 0
-132 -135 0
-133 -134 0
-133 -135 0
-134 -135 0
-136 -137 0
-136 -138 0
-136 -139 0
-136 -140 0
-137 -138 0
-137 -139 0
-137 -140 0
-138 -139 0
-138 -140 0
-139 -140 0
-141 -142 0
-141 -143 0
-141 -144 0
-141 -145 0
-142 -143 0
-142 -144 0
-142 -145 0
-143 -144 0
-143 -145 0
-144 -145 0
-146 -147 0
-146 -148 0
-146 -149 0
-146 -150 0
-147 -148 0
-147 -149 0
-147 -150 0
-148 -149 0
-148 -150 0
-149 -150 0
-151 -152 0
-151 -153 0
-151 -154 0
-151 -155 0
-152 -153 0
-152 -154 0
-152 -155 0
-153 -154 0
-153 -155 0
-154 -155 0
-156 -157 0
-156 -158 0
-156 -159 0
-156 -160 0
-157 -158 0
-157 -159 0
-157 -160 0
-158 -159 0
-158 -160 0
-159 -160 0
-161 -162 0
-161 -163 0
-161 -164 0
-161 -165 0
-162 -163 0
-162 -164 0
-162 -165 0
-163 -164 0
-163 -165 0
-164 -165 0
-166 -167 0
-166 -168 0
-166 -169 0
-166 -170 0
-167 -168 0
-167 -169 0
-167 -170 0
-168 -169 0
-168 -170 0
-169 -170 0
-171 -172 0
-171 -173 0
-171 -174 0
-171 -175 0
-172 -173 0
-172 -174 0
-172 -175 0
-173 -174 0
-173 -175 0
-174 -175 0
-5 -7 0
-5 -9 0
-1 -14 0
-2 -12 0
-3 -19 0
-1 -17 0
-2 -27 0
-1 -28 0
-2 -31 0
-1 -34 0
-5 -41 0
-3 -42 0
-2 -50 0
-3 -46 0
-5 -55 0
-1 -55 0
-3 -58 0
-5 -58 0
-3 -64 0
-1 -61 0
-5 -80 0
-4 -76 0
-4 -84 0
-2 -85 0
-1 -88 0
-1 -89 0
-1 -95 0
-4 -94 0
-2 -98 0
-5 -96 0
-2 -107 0
-4 -110 0
-4 -113 0
-3 -115 0
-4 -119 0
-5 -118 0
-2 -125 0
-3 -125 0
-4 -130 0
-3 -127 0
-3 -134 0
-3 -133 0
-5 -144 0
-4 -143 0
-5 -150 0
-2 -148 0
-5 -152 0
-1 -152 0
-4 -158 0
-4 -159 0
-4 -161 0
-5 -161 0
-3 -168 0
-2 -169 0
-4 -171 0
-1 -172 0
-7 -17 0
-8 -19 0
-9 -22 0
-6 -24 0
-6 -37 0
-9 -37 0
-9 -45 0
-10 -42 0
-8 -54 0
-8 -51 0
-7 -62 0
-7 -63 0
-9 -71 0
-8 -74 0
-10 -77 0
-10 -79 0
-8 -110 0
-7 -110 0
-10 -113 0
-9 -115 0
-10 -119 0
-6 -118 0
-9 -122 0
-8 -121 0
-8 -128 0
-7 -128 0
-9 -166 0
-8 -166 0
-8 -174 0
-10 -171 0
-15 -16 0
-11 -20 0
-12 -24 0
-12 -21 0
-14 -29 0
-13 -28 0
-15 -43 0
-13 -45 0
-15 -48 0
-14 -49 0
-14 -63 0
-12 -62 0
-15 -80 0
-14 -80 0
-11 -81 0
-15 -83 0
-11 -88 0
-13 -89 0
-13 -99 0
-14 -99 0
-12 -112 0
-15 -115 0
-15 -125 0
-14 -121 0
-15 -127 0
-12 -128 0
-12 -136 0
-14 -140 0
-12 -145 0
-12 -144 0
-11 -147 0
-14 -146 0
-14 -155 0
-12 -155 0
-12 -156 0
-11 -157 0
-15 -161 0
-12 -161 0
-15 -168 0
-15 -167 0
-15 -172 0
-13 -173 0
-17 -25 0
-16 -24 0
-17 -30 0
-16 -28 0
-18 -33 0
-16 -34 0
-18 -36 0
-19 -40 0
-17 -43 0
-18 -42 0
-16 -50 0
-20 -50 0
-20 -54 0
-17 -51 0
-17 -57 0
-17 -59 0
-19 -63 0
-19 -64 0
-16 -66 0
-19 -68 0
-19 -74 0
-20 -75 0
-19 -85 0
-20 -83 0
-20 -90 0
-18 -89 0
-19 -95 0
-19 -91 0
-16 -110 0
-20 -109 0
-18 -113 0
-19 -111 0
-16 -124 0
-20 -122 0
-17 -130 0
-20 -129 0
-17 -135 0
-20 -133 0
-16 -138 0
-19 -139 0
-19 -141 0
-19 -144 0
-19 -149 0
-16 -150 0
-19 -152 0
-19 -154 0
-18 -168 0
-20 -168 0
-19 -174 0
-17 -173 0
-21 -39 0
-24 -36 0
-24 -46 0
-21 -48 0
-22 -53 0
-21 -53 0
-22 -59 0
-21 -57 0
-24 -62 0
-23 -62 0
-22 -74 0
-24 -72 0
-25 -82 0
-22 -81 0
-25 -95 0
-24 -91 0
-25 -96 0
-25 -98 0
-25 -103 0
-24 -102 0
-23 -107 0
-22 -106 0
-22 -117 0
-22 -118 0
-21 -121 0
-21 -124 0
-25 -129 0
-24 -130 0
-23 -135 0
-21 -134 0
-23 -143 0
-22 -144 0
-22 -150 0
-24 -147 0
-21 -154 0
-21 -155 0
-21 -158 0
-21 -156 0
-25 -163 0
-22 -162 0
-23 -171 0
-22 -172 0
-30 -37 0
-27 -40 0
-26 -44 0
-26 -41 0
-28 -64 0
-29 -61 0
-30 -70 0
-26 -69 0
-30 -72 0
-26 -74 0
-30 -78 0
-28 -79 0
-27 -88 0
-29 -89 0
-29 -102 0
-28 -103 0
-28 -110 0
-28 -108 0
-30 -111 0
-28 -113 0
-30 -121 0
-29 -125 0
-26 -129 0
-27 -128 0
-28 -136 0
-26 -140 0
-29 -145 0
-27 -142 0
-28 -148 0
-29 -148 0
-30 -152 0
-30 -155 0
-27 -158 0
-29 -159 0
-26 -162 0
-28 -163 0
-28 -170 0
-29 -170 0
-28 -173 0
-28 -174 0
-32 -40 0
-32 -36 0
-34 -43 0
-33 -44 0
-32 -61 0
-33 -65 0
-34 -69 0
-34 -70 0
-32 -88 0
-33 -90 0
-34 -92 0
-33 -91 0
-31 -105 0
-35 -104 0
-34 -113 0
-32 -111 0
-35 -117 0
-31 -116 0
-33 -127 0
-34 -128 0
-33 -134 0
-31 -131 0
-33 -139 0
-33 -138 0
-31 -142 0
-32 -144 0
-34 -146 0
-35 -146 0
-31 -153 0
-32 -152 0
-34 -170 0
-32 -169 0
-36 -43 0
-39 -44 0
-37 -46 0
-37 -47 0
-36 -59 0
-39 -56 0
-40 -61 0
-37 -65 0
-36 -67 0
-37 -70 0
-38 -88 0
-39 -88 0
-38 -91 0
-37 -95 0
-38 -101 0
-36 -102 0
-36 -106 0
-37 -106 0
-36 -114 0
-37 -113 0
-38 -133 0
-36 -132 0
-40 -140 0
-37 -139 0
-38 -145 0
-39 -141 0
-36 -146 0
-37 -148 0
-39 -151 0
-38 -153 0
-40 -156 0
-40 -160 0
-40 -165 0
-37 -165 0
-37 -170 0
-39 -170 0
-40 -174 0
-39 -174 0
-43 -46 0
-42 -50 0
-45 -53 0
-41 -55 0
-43 -59 0
-41 -56 0
-44 -61 0
-42 -64 0
-41 -70 0
-44 -69 0
-42 -71 0
-45 -74 0
-41 -80 0
-42 -80 0
-43 -88 0
-43 -86 0
-42 -92 0
-41 -91 0
-42 -104 0
-42 -105 0
-45 -107 0
-42 -110 0
-42 -112 0
-44 -114 0
-45 -116 0
-41 -116 0
-44 -133 0
-44 -132 0
-41 -140 0
-45 -138 0
-44 -154 0
-42 -152 0
-42 -158 0
-43 -157 0
-44 -170 0
-41 -166 0
-43 -172 0
-41 -175 0
-47 -63 0
-46 -64 0
-49 -66 0
-48 -70 0
-46 -72 0
-49 -72 0
-47 -78 0
-50 -79 0
-50 -83 0
-50 -82 0
-46 -87 0
-50 -88 0
-47 -92 0
-48 -95 0
-49 -97 0
-47 -98 0
-47 -102 0
-48 -105 0
-49 -110 0
-50 -107 0
-48 -112 0
-48 -111 0
-46 -125 0
-48 -124 0
-48 -134 0
-49 -135 0
-47 -136 0
-47 -139 0
-46 -144 0
-46 -142 0
-48 -147 0
-47 -148 0
-50 -151 0
-46 -153 0
-50 -163 0
-49 -161 0
-47 -168 0
-48 -169 0
-47 -172 0
-46 -175 0
-52 -60 0
-54 -58 0
-51 -65 0
-51 -64 0
-51 -89 0
-51 -88 0
-53 -98 0
-55 -96 0
-53 -117 0
-52 -118 0
-52 -121 0
-51 -123 0
-55 -130 0
-53 -130 0
-52 -133 0
-53 -133 0
-54 -138 0
-54 -139 0
-54 -149 0
-53 -150 0
-53 -151 0
-55 -154 0
-52 -156 0
-55 -156 0
-51 -164 0
-51 -161 0
-52 -169 0
-55 -168 0
-55 -171 0
-52 -174 0
-59 -65 0
-60 -63 0
-56 -69 0
-58 -70 0
-60 -71 0
-59 -73 0
-57 -78 0
-56 -76 0
-58 -87 0
-60 -86 0
-60 -99 0
-58 -98 0
-57 -104 0
-58 -104 0
-60 -114 0
-59 -113 0
-58 -125 0
-58 -122 0
-60 -126 0
-56 -130 0
-57 -136 0
-60 -137 0
-58 -145 0
-58 -142 0
-59 -151 0
-56 -151 0
-56 -156 0
-56 -159 0
-59 -164 0
-57 -165 0
-60 -170 0
-58 -167 0
-62 -70 0
-63 -68 0
-65 -71 0
-64 -71 0
-61 -80 0
-62 -76 0
-64 -85 0
-62 -85 0
-65 -86 0
-63 -88 0
-65 -108 0
-65 -110 0
-64 -113 0
-62 -113 0
-62 -120 0
-63 -120 0
-63 -121 0
-61 -125 0
-65 -130 0
-63 -128 0
-64 -135 0
-63 -134 0
-63 -137 0
-61 -139 0
-62 -141 0
-63 -143 0
-61 -151 0
-62 -153 0
-61 -157 0
-65 -158 0
-64 -170 0
-63 -170 0
-62 -175 0
-65 -172 0
-68 -75 0
-66 -73 0
-70 -77 0
-67 -77 0
-68 -81 0
-66 -82 0
-66 -90 0
-70 -89 0
-69 -92 0
-68 -95 0
-68 -99 0
-68 -97 0
-67 -105 0
-66 -103 0
-68 -107 0
-68 -110 0
-66 -113 0
-67 -113 0
-69 -118 0
-70 -116 0
-69 -125 0
-68 -124 0
-67 -127 0
-70 -130 0
-68 -138 0
-67 -139 0
-66 -143 0
-69 -141 0
-67 -149 0
-66 -146 0
-68 -151 0
-70 -154 0
-68 -161 0
-67 -165 0
-70 -173 0
-67 -174 0
-73 -80 0
-75 -76 0
-71 -81 0
-75 -82 0
-75 -95 0
-74 -91 0
-74 -96 0
-73 -98 0
-72 -103 0
-73 -103 0
-75 -108 0
-75 -110 0
-72 -121 0
-75 -125 0
-72 -130 0
-71 -128 0
-71 -134 0
-71 -135 0
-75 -140 0
-74 -137 0
-71 -142 0
-71 -145 0
-73 -170 0
-71 -170 0
-73 -172 0
-73 -171 0
-80 -102 0
-77 -102 0
-79 -106 0
-77 -109 0
-76 -123 0
-79 -124 0
-77 -130 0
-79 -127 0
-77 -138 0
-80 -136 0
-76 -141 0
-80 -143 0
-77 -151 0
-77 -155 0
-77 -160 0
-78 -159 0
-76 -162 0
-80 -161 0
-78 -169 0
-79 -167 0
-78 -175 0
-78 -171 0
-82 -88 0
-81 -90 0
-85 -100 0
-83 -99 0
-85 -102 0
-81 -103 0
-84 -112 0
-85 -113 0
-81 -127 0
-84 -127 0
-82 -135 0
-85 -135 0
-83 -137 0
-81 -139 0
-85 -142 0
-82 -144 0
-81 -151 0
-83 -153 0
-81 -160 0
-81 -156 0
-83 -161 0
-81 -163 0
-85 -167 0
-84 -167 0
-83 -174 0
-84 -174 0
-86 -93 0
-86 -92 0
-86 -100 0
-88 -100 0
-88 -110 0
-89 -110 0
-89 -113 0
-86 -115 0
-88 -123 0
-90 -124 0
-89 -130 0
-86 -127 0
-89 -131 0
-87 -131 0
-88 -141 0
-87 -143 0
-87 -150 0
-86 -147 0
-86 -152 0
-90 -152 0
-86 -170 0
-89 -168 0
-93 -96 0
-91 -97 0
-94 -105 0
-95 -105 0
-92 -109 0
-91 -107 0
-94 -112 0
-91 -112 0
-95 -116 0
-92 -117 0
-93 -126 0
-93 -128 0
-94 -134 0
-92 -135 0
-93 -140 0
-92 -137 0
-91 -141 0
-95 -141 0
-95 -150 0
-95 -146 0
-92 -151 0
-94 -152 0
-92 -159 0
-91 -156 0
-91 -162 0
-93 -161 0
-93 -170 0
-94 -169 0
-94 -174 0
-91 -171 0
-96 -106 0
-100 -106 0
-100 -115 0
-99 -111 0
-99 -120 0
-99 -119 0
-99 -133 0
-99 -135 0
-99 -140 0
-100 -136 0
-99 -143 0
-100 -143 0
-96 -146 0
-100 -148 0
-98 -154 0
-97 -152 0
-99 -162 0
-100 -161 0
-98 -169 0
-99 -166 0
-98 -171 0
-100 -174 0
-102 -107 0
-103 -106 0
-103 -115 0
-105 -113 0
-101 -141 0
-102 -144 0
-103 -149 0
-101 -149 0
-105 -161 0
-104 -165 0
-105 -167 0
-101 -167 0
-101 -171 0
-103 -174 0
-109 -111 0
-106 -111 0
-106 -119 0
-109 -118 0
-106 -129 0
-108 -126 0
-107 -133 0
-106 -132 0
-107 -137 0
-108 -139 0
-106 -141 0
-109 -141 0
-110 -150 0
-109 -148 0
-110 -152 0
-108 -154 0
-107 -169 0
-109 -170 0
-111 -123 0
-111 -122 0
-112 -127 0
-115 -129 0
-111 -139 0
-112 -136 0
-115 -154 0
-111 -155 0
-112 -159 0
-114 -160 0
-111 -164 0
-113 -161 0
-120 -124 0
-116 -121 0
-116 -129 0
-120 -126 0
-119 -141 0
-116 -143 0
-118 -150 0
-117 -149 0
-118 -153 0
-120 -152 0
-119 -158 0
-117 -159 0
-117 -168 0
-119 -170 0
-124 -126 0
-121 -127 0
-122 -133 0
-122 -134 0
-121 -144 0
-124 -145 0
-121 -148 0
-125 -150 0
-125 -157 0
-123 -160 0
-123 -161 0
-124 -163 0
-123 -170 0
-121 -169 0
-123 -172 0
-124 -173 0
-130 -140 0
-130 -137 0
-126 -153 0
-126 -154 0
-126 -160 0
-128 -160 0
-129 -165 0
-130 -163 0
-126 -169 0
-129 -170 0
-134 -138 0
-131 -137 0
-132 -143 0
-132 -144 0
-131 -152 0
-135 -153 0
-133 -160 0
-133 -159 0
-133 -162 0
-134 -162 0
-134 -170 0
-133 -167 0
-135 -173 0
-134 -173 0
-139 -143 0
-137 -144 0
-139 -147 0
-140 -150 0
-137 -153 0
-137 -154 0
-136 -157 0
-137 -160 0
-140 -165 0
-139 -162 0
-143 -146 0
-144 -147 0
-143 -154 0
-144 -152 0
-142 -157 0
-144 -157 0
-145 -163 0
-141 -161 0
-142 -175 0
-145 -175 0
-148 -153 0
-147 -154 0
-148 -156 0
-146 -158 0
-150 -162 0
-149 -163 0
-147 -168 0
-150 -168 0
-149 -171 0
-147 -173 0
-152 -157 0
-151 -158 0
-154 -163 0
-152 -162 0
-152 -170 0
-152 -166 0
-151 -174 0
-154 -174 0
-156 -162 0
-158 -164 0
-157 -166 0
-156 -167 0
-157 -175 0
-156 -174 0
-161 -173 0
-162 -173 0
